(declare-const x0 Bool)
(declare-const x1 Bool)
(declare-const x2 Bool)
(declare-const x3 Bool)
(declare-const x4 Bool)
(declare-const x5 Bool)
(declare-const x6 Bool)
(declare-const x7 Bool)
(declare-const x8 Bool)
(declare-const x9 Bool)
(declare-const x10 Bool)
(declare-const x11 Bool)
(declare-const x12 Bool)
(declare-const x13 Bool)
(declare-const x14 Bool)
(declare-const x15 Bool)
(declare-const x16 Bool)
(declare-const x17 Bool)
(declare-const x18 Bool)
(declare-const x19 Bool)
(declare-const x20 Bool)
(declare-const x21 Bool)
(declare-const x22 Bool)
(declare-const x23 Bool)
(declare-const x24 Bool)
(declare-const x25 Bool)
(declare-const y0 Real)
(declare-const y1 Real)
(declare-const y2 Real)
(declare-const y3 Real)
(declare-const y4 Real)
(declare-const y5 Real)
(assert (= y2 74))
(assert (= x21 true))
(assert (and (= (or x21 (and true (and true true))) (or x12 (and (or (= true false) (< 73 y0)) (or false false)))) (= (= 33 y1) false)))
(assert (< y3 73))
(assert (and (or x20 false) true))
(assert (and (< 63 y3) (and x13 false)))
(assert (and x13 x8))
(assert x6)
(assert (< (+ y4 6) 2))
(check-sat)
